
Gurobi 13.0.1 (win64) logging started Mon Mar  9 17:06:06 2026

Set parameter LogFile to value "c:\users\evert\documents\tu-delft\til master\til5050-20 til design project\til_design_repo\til_design\modeling\gurobi.log"
Gurobi Optimizer version 13.0.1 build v13.0.1rc0 (win64 - Windows 11+.0 (26200.2))

CPU model: 13th Gen Intel(R) Core(TM) i7-13700H, instruction set [SSE2|AVX|AVX2]
Thread count: 14 physical cores, 20 logical processors, using up to 20 threads

Optimize a model with 2160 rows, 1920 columns and 4476 nonzeros (Max)
Model fingerprint: 0x720dd040
Model has 720 linear objective coefficients
Variable types: 744 continuous, 1176 integer (1176 binary)
Coefficient statistics:
  Matrix range     [4e-01, 2e+03]
  Objective range  [1e+00, 1e+00]
  Bounds range     [1e+00, 1e+03]
  RHS range        [1e+00, 3e+03]

Found heuristic solution: objective -0.0000000
Presolve removed 2080 rows and 1877 columns
Presolve time: 0.03s
Presolved: 80 rows, 43 columns, 236 nonzeros
Found heuristic solution: objective 24.0000000
Variable types: 4 continuous, 39 integer (39 binary)

Root relaxation: objective 5.062786e+01, 45 iterations, 0.00 seconds (0.00 work units)

    Nodes    |    Current Node    |     Objective Bounds      |     Work
 Expl Unexpl |  Obj  Depth IntInf | Incumbent    BestBd   Gap | It/Node Time

     0     0   50.62786    0   33   24.00000   50.62786   111%     -    0s
H    0     0                      25.0000000   50.62786   103%     -    0s
H    0     0                      26.0000000   50.62786  94.7%     -    0s
H    0     0                      28.0000000   50.62786  80.8%     -    0s
     0     0     cutoff    0        28.00000   28.00000  0.00%     -    0s

Cutting planes:
  Learned: 134
  Gomory: 2
  Cover: 8
  MIR: 2
  BQP: 2

Explored 1 nodes (63 simplex iterations) in 0.05 seconds (0.03 work units)
Thread count was 20 (of 20 available processors)

Solution count 5: 28 26 25 ... -0

Optimal solution found (tolerance 1.00e-04)
Best objective 2.800000000000e+01, best bound 2.800000000000e+01, gap 0.0000%
Gurobi Optimizer version 13.0.1 build v13.0.1rc0 (win64 - Windows 11+.0 (26200.2))

CPU model: 13th Gen Intel(R) Core(TM) i7-13700H, instruction set [SSE2|AVX|AVX2]
Thread count: 14 physical cores, 20 logical processors, using up to 20 threads

Optimize a model with 2161 rows, 1920 columns and 5196 nonzeros (Max)
Model fingerprint: 0x404489fb
Model has 60 linear objective coefficients
Variable types: 744 continuous, 1176 integer (1176 binary)
Coefficient statistics:
  Matrix range     [4e-01, 2e+03]
  Objective range  [1e+00, 1e+00]
  Bounds range     [1e+00, 1e+03]
  RHS range        [1e+00, 3e+03]

MIP start from previous solve produced solution with objective -0 (0.00s)
Loaded MIP start from previous solve with objective -0

Presolve removed 1631 rows and 1612 columns
Presolve time: 0.00s
Presolved: 530 rows, 308 columns, 1633 nonzeros
Variable types: 24 continuous, 284 integer (284 binary)
Found heuristic solution: objective 12.0000000

Root relaxation: objective 2.800000e+01, 258 iterations, 0.00 seconds (0.00 work units)

    Nodes    |    Current Node    |     Objective Bounds      |     Work
 Expl Unexpl |  Obj  Depth IntInf | Incumbent    BestBd   Gap | It/Node Time

     0     0   28.00000    0   55   12.00000   28.00000   133%     -    0s
     0     0   28.00000    0   43   12.00000   28.00000   133%     -    0s
     0     0   28.00000    0   47   12.00000   28.00000   133%     -    0s
     0     0   28.00000    0   75   12.00000   28.00000   133%     -    0s
     0     0   28.00000    0   33   12.00000   28.00000   133%     -    0s
H    0     0                      13.0000000   28.00000   115%     -    0s
H    0     0                      14.0000000   28.00000   100%     -    0s
H    0     0                      15.0000000   28.00000  86.7%     -    0s
H    0     0                      17.0000000   28.00000  64.7%     -    0s
     0     0   27.55394    0   71   17.00000   27.55394  62.1%     -    0s
     0     0   26.89043    0   66   17.00000   26.89043  58.2%     -    0s
     0     0   26.89043    0   50   17.00000   26.89043  58.2%     -    0s
H    0     0                      18.0000000   26.76265  48.7%     -    0s
H    0     0                      19.0000000   26.76265  40.9%     -    0s
     0     0   26.76265    0   64   19.00000   26.76265  40.9%     -    0s
     0     0   26.75530    0   59   19.00000   26.75530  40.8%     -    0s
     0     0   26.75360    0   58   19.00000   26.75360  40.8%     -    0s
     0     0   26.75360    0   58   19.00000   26.75360  40.8%     -    0s
     0     0   26.00000    0   52   19.00000   26.00000  36.8%     -    0s
H    0     0                      20.0000000   26.00000  30.0%     -    0s
     0     0   26.00000    0   66   20.00000   26.00000  30.0%     -    0s
     0     0   25.45000    0   77   20.00000   25.45000  27.3%     -    0s
     0     0   25.04753    0   69   20.00000   25.04753  25.2%     -    0s
     0     0   25.04753    0   75   20.00000   25.04753  25.2%     -    0s
     0     0   23.82710    0   49   20.00000   23.82710  19.1%     -    0s
     0     0   23.00000    0   41   20.00000   23.00000  15.0%     -    0s
     0     0   23.00000    0   32   20.00000   23.00000  15.0%     -    0s
     0     0   23.00000    0   14   20.00000   23.00000  15.0%     -    0s
     0     0   23.00000    0   44   20.00000   23.00000  15.0%     -    0s
     0     0   23.00000    0   59   20.00000   23.00000  15.0%     -    0s
     0     0   23.00000    0   58   20.00000   23.00000  15.0%     -    0s
     0     0   23.00000    0   39   20.00000   23.00000  15.0%     -    0s
     0     0   23.00000    0   46   20.00000   23.00000  15.0%     -    0s
     0     0   23.00000    0   43   20.00000   23.00000  15.0%     -    0s
     0     0   23.00000    0   16   20.00000   23.00000  15.0%     -    0s
H    0     0                      21.0000000   23.00000  9.52%     -    0s
     0     0   23.00000    0   21   21.00000   23.00000  9.52%     -    0s
     0     0   23.00000    0   10   21.00000   23.00000  9.52%     -    0s
     0     0   23.00000    0   10   21.00000   23.00000  9.52%     -    0s
H    0     0                      23.0000000   23.00000  0.00%     -    0s
     0     0          -    0        23.00000   23.00000  0.00%     -    0s

Cutting planes:
  Learned: 179
  Gomory: 4
  Cover: 43
  Implied bound: 2
  Clique: 7
  MIR: 26
  StrongCG: 4
  Zero half: 2
  RLT: 1
  Relax-and-lift: 17
  BQP: 1

Explored 1 nodes (3861 simplex iterations) in 0.27 seconds (0.23 work units)
Thread count was 20 (of 20 available processors)

Solution count 10: 23 21 20 ... 12

Optimal solution found (tolerance 1.00e-04)
Best objective 2.300000000000e+01, best bound 2.300000000000e+01, gap 0.0000%
Gurobi Optimizer version 13.0.1 build v13.0.1rc0 (win64 - Windows 11+.0 (26200.2))

CPU model: 13th Gen Intel(R) Core(TM) i7-13700H, instruction set [SSE2|AVX|AVX2]
Thread count: 14 physical cores, 20 logical processors, using up to 20 threads

Optimize a model with 2162 rows, 1920 columns and 5256 nonzeros (Min)
Model fingerprint: 0x44cc2fc1
Model has 720 linear objective coefficients
Variable types: 744 continuous, 1176 integer (1176 binary)
Coefficient statistics:
  Matrix range     [4e-01, 2e+03]
  Objective range  [1e+00, 1e+00]
  Bounds range     [1e+00, 1e+03]
  RHS range        [1e+00, 3e+03]

MIP start from previous solve produced solution with objective 265.6 (0.01s)
MIP start from previous solve produced solution with objective 265.6 (0.01s)
Loaded MIP start from previous solve with objective 265.6

Presolve removed 1193 rows and 1388 columns
Presolve time: 0.02s
Presolved: 969 rows, 532 columns, 3276 nonzeros
Variable types: 248 continuous, 284 integer (284 binary)

Root relaxation: objective 0.000000e+00, 446 iterations, 0.00 seconds (0.01 work units)

    Nodes    |    Current Node    |     Objective Bounds      |     Work
 Expl Unexpl |  Obj  Depth IntInf | Incumbent    BestBd   Gap | It/Node Time

     0     0    0.00000    0   55  265.60000    0.00000   100%     -    0s
     0     0    0.00000    0   49  265.60000    0.00000   100%     -    0s
     0     0    0.00000    0   79  265.60000    0.00000   100%     -    0s
     0     0    0.00000    0   85  265.60000    0.00000   100%     -    0s
     0     0    0.00000    0   46  265.60000    0.00000   100%     -    0s
     0     0    0.00000    0   46  265.60000    0.00000   100%     -    0s
     0     0    0.00000    0   37  265.60000    0.00000   100%     -    0s
     0     2    0.00000    0   36  265.60000    0.00000   100%     -    0s
H  449    59                     245.6000000    0.31496   100%  47.3    0s
H  451    59                     239.6000000    0.31496   100%  47.1    0s
*  493    63              21     222.4000000    0.31496   100%  44.9    0s
*  550    63              22     222.0000000    0.31496   100%  41.1    0s

Cutting planes:
  Learned: 480
  Gomory: 38
  Cover: 162
  Implied bound: 6
  Clique: 6
  MIR: 216
  StrongCG: 1
  Flow cover: 2
  Inf proof: 16
  RLT: 42
  Relax-and-lift: 230
  BQP: 19
  PSD: 1

Explored 920 nodes (29027 simplex iterations) in 0.50 seconds (0.61 work units)
Thread count was 20 (of 20 available processors)

Solution count 5: 222 222.4 239.6 ... 265.6

Optimal solution found (tolerance 1.00e-04)
Best objective 2.220000000000e+02, best bound 2.220000000000e+02, gap 0.0000%
